NAME : data_9_3_tsptw.tsptw
TYPE : TSPTW
DIMENSION : 10
EDGE_WEIGHT_TYPE : EXPLICIT
EDGE_WEIGHT_FORMAT : FULL_MATRIX
EDGE_WEIGHT_SECTION
0 3131 3174 3118 3051 3105 2924 3093 3019 3165
2979 0 773 572 235 313 617 644 423 518
2912 540 0 374 447 312 768 345 574 287
2877 680 371 0 586 274 667 122 714 54
2727 286 712 512 0 253 470 584 276 458
2945 439 585 293 345 0 666 349 472 239
2781 368 792 473 289 332 0 595 95 527
2791 913 461 348 820 623 832 0 927 395
2938 828 749 377 735 423 785 499 0 432
2929 617 423 56 523 230 723 174 650 0
TIME_WINDOW_SECTION
1 0 600000
2 7200 12600
3 12600 23400
4 5400 16200
5 3600 14400
6 1800 7200
7 7200 12600
8 10800 21600
9 9000 14400
10 1800 7200
DEPOT_SECTION
1
-1
EOF